(declare-fun _for_it_91 () Int)
(declare-fun _for_it_92 () Int)
(declare-fun kfdia () Int)
(declare-fun kidia () Int)
(declare-fun klev () Int)
(declare-fun ncldtop () Int)

(assert (and
  (forall ((_for_it_95_0 Int) (_for_it_95_1 Int))
    (or
      (= (+ _for_it_92 1) (+ _for_it_91 1))
      (not (<= _for_it_95_0 (+ kfdia (- 1))))
      (not (<= (+ kidia (- 1)) _for_it_95_0))
      (not (= _for_it_95_0 _for_it_95_1))
      (not (= _for_it_92 (+ _for_it_92 1)))
      (not (<= _for_it_95_1 (+ kfdia (- 1))))
      (not (<= (+ kidia (- 1)) _for_it_95_1))
      (= (+ _for_it_92 2) (+ _for_it_91 1))
    )
  )
  (forall ((_for_it_93_0 Int) (_for_it_93_1 Int))
    (or
      (not (<= _for_it_93_1 (+ kfdia (- 1))))
      (not (<= (+ kidia (- 1)) _for_it_93_1))
      (not (<= _for_it_93_0 (+ kfdia (- 1))))
      (not (<= (+ kidia (- 1)) _for_it_93_0))
      (not (= (+ _for_it_92 1) (+ _for_it_91 1)))
      (not (= _for_it_93_0 _for_it_93_1))
      (not (= _for_it_92 (+ _for_it_92 1)))
      (not (= (+ _for_it_92 2) (+ _for_it_91 1)))
    )
  )
  (forall ((_for_it_93_1 Int) (_for_it_95_0 Int))
    (or
      (not (<= _for_it_93_1 (+ kfdia (- 1))))
      (not (<= (+ kidia (- 1)) _for_it_93_1))
      (= (+ _for_it_92 1) (+ _for_it_91 1))
      (not (<= _for_it_95_0 (+ kfdia (- 1))))
      (not (<= (+ kidia (- 1)) _for_it_95_0))
      (not (= _for_it_95_0 _for_it_93_1))
      (not (= _for_it_92 (+ _for_it_92 1)))
      (not (= (+ _for_it_92 2) (+ _for_it_91 1)))
    )
  )
  (forall ((_for_it_93_0 Int) (_for_it_94_0 Int) (_for_it_95_1 Int))
    (or
      (not (= _for_it_93_0 _for_it_95_1))
      (not (<= _for_it_93_0 (+ kfdia (- 1))))
      (not (<= (+ kidia (- 1)) _for_it_93_0))
      (not (<= 0 _for_it_94_0))
      (not (<= _for_it_94_0 4))
      (not (= (+ _for_it_92 1) (+ _for_it_91 1)))
      (not (= _for_it_92 (+ _for_it_92 1)))
      (not (<= _for_it_95_1 (+ kfdia (- 1))))
      (not (<= (+ kidia (- 1)) _for_it_95_1))
      (= (+ _for_it_92 2) (+ _for_it_91 1))
    )
  )
  (forall ((_for_it_93_1 Int) (_for_it_94_1 Int) (_for_it_95_0 Int))
    (or
      (not (<= _for_it_93_1 (+ kfdia (- 1))))
      (not (<= (+ kidia (- 1)) _for_it_93_1))
      (= (+ _for_it_92 1) (+ _for_it_91 1))
      (not (<= _for_it_95_0 (+ kfdia (- 1))))
      (not (<= (+ kidia (- 1)) _for_it_95_0))
      (not (= _for_it_95_0 _for_it_93_1))
      (not (= _for_it_92 (+ _for_it_92 1)))
      (not (<= _for_it_94_1 4))
      (not (<= 0 _for_it_94_1))
      (not (= (+ _for_it_92 2) (+ _for_it_91 1)))
    )
  )
  (and
    (<= 0 _for_it_92)
    (<= (+ _for_it_92 1) 4)
    (<= kidia (+ kfdia (- 1)))
    (<= ncldtop (+ klev (- 1)))
  )
  (forall ((_for_it_93_0 Int) (_for_it_93_1 Int) (_for_it_94_0 Int) (_for_it_94_1 Int))
    (or
      (not (<= _for_it_93_1 (+ kfdia (- 1))))
      (not (<= (+ kidia (- 1)) _for_it_93_1))
      (not (<= _for_it_93_0 (+ kfdia (- 1))))
      (not (<= (+ kidia (- 1)) _for_it_93_0))
      (not (<= 0 _for_it_94_0))
      (not (<= _for_it_94_0 4))
      (not (= (+ _for_it_92 1) (+ _for_it_91 1)))
      (not (= _for_it_93_0 _for_it_93_1))
      (not (= _for_it_92 (+ _for_it_92 1)))
      (not (<= _for_it_94_1 4))
      (not (<= 0 _for_it_94_1))
      (not (= (+ _for_it_92 2) (+ _for_it_91 1)))
    )
  )
  (forall ((_for_it_93_0 Int) (_for_it_93_1 Int) (_for_it_94_0 Int))
    (or
      (not (<= _for_it_93_1 (+ kfdia (- 1))))
      (not (<= (+ kidia (- 1)) _for_it_93_1))
      (not (<= _for_it_93_0 (+ kfdia (- 1))))
      (not (<= (+ kidia (- 1)) _for_it_93_0))
      (not (<= 0 _for_it_94_0))
      (not (<= _for_it_94_0 4))
      (not (= (+ _for_it_92 1) (+ _for_it_91 1)))
      (not (= _for_it_93_0 _for_it_93_1))
      (not (= _for_it_92 (+ _for_it_92 1)))
      (not (= (+ _for_it_92 2) (+ _for_it_91 1)))
    )
  )
  (forall ((_for_it_93_0 Int) (_for_it_95_1 Int))
    (or
      (not (= _for_it_93_0 _for_it_95_1))
      (not (<= _for_it_93_0 (+ kfdia (- 1))))
      (not (<= (+ kidia (- 1)) _for_it_93_0))
      (not (= (+ _for_it_92 1) (+ _for_it_91 1)))
      (not (= _for_it_92 (+ _for_it_92 1)))
      (not (<= _for_it_95_1 (+ kfdia (- 1))))
      (not (<= (+ kidia (- 1)) _for_it_95_1))
      (= (+ _for_it_92 2) (+ _for_it_91 1))
    )
  )
  (forall ((_for_it_93_0 Int) (_for_it_93_1 Int) (_for_it_94_1 Int))
    (or
      (not (<= _for_it_93_1 (+ kfdia (- 1))))
      (not (<= (+ kidia (- 1)) _for_it_93_1))
      (not (<= _for_it_93_0 (+ kfdia (- 1))))
      (not (<= (+ kidia (- 1)) _for_it_93_0))
      (not (= (+ _for_it_92 1) (+ _for_it_91 1)))
      (not (= _for_it_93_0 _for_it_93_1))
      (not (= _for_it_92 (+ _for_it_92 1)))
      (not (<= _for_it_94_1 4))
      (not (<= 0 _for_it_94_1))
      (not (= (+ _for_it_92 2) (+ _for_it_91 1)))
    )
  )
))

(check-sat)